Minimize
 
Subject To
 R0: 1_1_1 + 2_1_1 - X <= 0
 R1: 1_1_2 + 2_1_2 - X <= 0
 R2: 1_2_1 + 2_2_1 - X <= 0
 R3: 1_2_2 + 2_2_2 - X <= 0
 R4: 1_1_1 + 1_2_1 = 1
 R5: 1_1_2 + 1_2_2 = 1
 R6: 2_1_1 + 2_2_1 = 1
 R7: 2_1_2 + 2_2_2 = 1
 R8: 1_2_1 + 1_2_2 = 1
 R9: 2_2_1 + 2_2_2 = 1
 R10: - 1_1_1 + 1_2_2 <= 0
 R11: - 2_1_1 + 2_2_2 <= 0
Bounds
Binaries
 1_1_1 1_1_2 1_2_1 1_2_2 2_1_1 2_1_2 2_2_1 2_2_2
End
